
Gurobi 10.0.1 (linux64) logging started Fri May 12 03:07:56 2023

Set parameter LogFile to value "logFiles/N-1L-D/N-1L-14U-40F-23V-365D_old_demand-basic.log"
Gurobi Optimizer version 10.0.1 build v10.0.1rc0 (linux64)

CPU model: Intel(R) Xeon(R) Gold 5115 CPU @ 2.40GHz, instruction set [SSE2|AVX|AVX2|AVX512]
Thread count: 20 physical cores, 40 logical processors, using up to 20 threads

Optimize a model with 277307 rows, 3462361 columns and 33839083 nonzeros
Model fingerprint: 0x946511c3
Variable types: 5109 continuous, 3457252 integer (3457252 binary)
Coefficient statistics:
  Matrix range     [1e+00, 2e+05]
  Objective range  [4e+01, 3e+07]
  Bounds range     [1e+00, 1e+00]
  RHS range        [1e+00, 6e+06]
Presolve removed 148535 rows and 62369 columns (presolve time = 5s) ...
Presolve removed 149316 rows and 76458 columns (presolve time = 11s) ...
Presolve removed 149317 rows and 76458 columns (presolve time = 16s) ...
Presolve removed 149325 rows and 76466 columns (presolve time = 20s) ...
Presolve removed 149325 rows and 76466 columns (presolve time = 27s) ...
Presolve removed 154963 rows and 76466 columns (presolve time = 31s) ...
Presolve removed 154963 rows and 76466 columns (presolve time = 35s) ...
Presolve removed 154963 rows and 169245 columns (presolve time = 40s) ...
Presolve removed 154963 rows and 200088 columns (presolve time = 45s) ...
Presolve removed 163521 rows and 325757 columns (presolve time = 50s) ...
Presolve removed 164335 rows and 326061 columns (presolve time = 56s) ...
Presolve removed 164338 rows and 326061 columns
Presolve time: 59.15s

Explored 0 nodes (0 simplex iterations) in 66.86 seconds (89.61 work units)
Thread count was 1 (of 40 available processors)

Solution count 0

Model is infeasible or unbounded
Best objective -, best bound -, gap -
